sat
(:max-memory              28.68
 :memory                  18.51
 :num-allocs              8111645
 :rlimit-count            211401
 :sat-backjumps           221
 :sat-conflicts           221
 :sat-decisions           325
 :sat-del-clause          10454
 :sat-elim-bool-vars-res  2053
 :sat-elim-clauses        6
 :sat-elim-literals       61
 :sat-minimized-lits      2386
 :sat-mk-clause-2ary      6448
 :sat-mk-clause-3ary      2289
 :sat-mk-clause-nary      17820
 :sat-mk-var              4364
 :sat-probing-assigned    9
 :sat-propagations-2ary   59863
 :sat-propagations-nary   66215
 :sat-restarts            22
 :sat-scc-elim-binary     3
 :sat-scc-elim-vars       28
 :sat-subs-resolution     43
 :sat-subs-resolution-dyn 155
 :sat-subsumed            2112
 :sat-units               58
 :time                    0.06
 :total-time              0.07)
